Set parameter WLSAccessID
Set parameter WLSSecret
Set parameter LicenseID to value 2663665
Academic license 2663665 - for non-commercial use only - registered to tu___@vnu.edu.vn
------------------Gurobi Log------------------
Gurobi Optimizer version 13.0.1 build v13.0.1rc0 (linux64 - "Debian GNU/Linux 12 (bookworm)")

CPU model: AMD EPYC 7B12, instruction set [SSE2|AVX|AVX2]
Thread count: 4 physical cores, 8 logical processors, using up to 8 threads

Academic license 2663665 - for non-commercial use only - registered to tu___@vnu.edu.vn
Optimize a model with 989 rows, 400 columns and 17426 nonzeros (Min)
Model fingerprint: 0xf40658df
Model has 0 linear objective coefficients
Variable types: 0 continuous, 400 integer (400 binary)
Coefficient statistics:
  Matrix range     [1e+00, 1e+00]
  Objective range  [0e+00, 0e+00]
  Bounds range     [1e+00, 1e+00]
  RHS range        [1e+00, 2e+01]

Presolve time: 0.01s
Presolved: 989 rows, 400 columns, 17426 nonzeros
Variable types: 0 continuous, 400 integer (400 binary)

Root relaxation: objective 0.000000e+00, 614 iterations, 0.02 seconds (0.03 work units)

    Nodes    |    Current Node    |     Objective Bounds      |     Work
 Expl Unexpl |  Obj  Depth IntInf | Incumbent    BestBd   Gap | It/Node Time

H    0     0                       0.0000000    0.00000  0.00%     -    0s
     0     0    0.00000    0  100    0.00000    0.00000  0.00%     -    0s

Explored 1 nodes (614 simplex iterations) in 0.04 seconds (0.05 work units)
Thread count was 8 (of 8 available processors)

Solution count 1: 0 

Optimal solution found (tolerance 1.00e-04)
Best objective 0.000000000000e+00, best bound 0.000000000000e+00, gap 0.0000%
------------------Specifications------------------
Processing Time     : 0.016 seconds
Optimization Time   : 0.041 seconds
Total Time          : 0.058 seconds
Memory Usaged       : 16.51 MB
------------------Verifying solution------------------
All constraints are satisfied.
------------------Schedule------------------
Nurse 0: 0 2 0 2 3 2 1 3 1 3 1 3 1 2 0 2 0 2 3 2 1 3 1 3 1 3 1 2 0 2 0 2 3 2 1 3 1 3 1 3 1 2 0 2 0 2 3 2 1 3 1 3 1 3 1 2 0 2 0 2 3 2 1 3 1 3 1 3 1 2 0 2 0 2 3 2 1 3 1 3 1 3 1 2 0 2 0 2 3 2 1 3 1 3 1 3 1 2 0 2
